p edge 20 52 5
v 6 2 5 6 9 13 19
v 5 7 8 11 14 17
v 3 4 12 20
v 4 3 10 16 18
v 2 1 15
e 1 6
e 1 12
e 1 13
e 1 17
e 2 3
e 2 7
e 2 17
e 3 4
e 3 7
e 3 10
e 3 18
e 3 19
e 4 5
e 4 6
e 4 7
e 4 8
e 4 12
e 4 19
e 5 6
e 5 7
e 5 9
e 5 10
e 5 16
e 6 11
e 6 12
e 6 13
e 6 17
e 7 12
e 7 14
e 7 15
e 7 20
e 8 11
e 8 13
e 9 13
e 9 15
e 9 16
e 9 19
e 10 12
e 10 17
e 11 14
e 12 15
e 12 17
e 12 19
e 13 15
e 13 18
e 14 15
e 14 16
e 14 17
e 16 18
e 17 19
e 18 19
e 19 20
